
Gurobi 9.0.3 (win64, Java) logging started Sun Feb 21 04:09:22 2021


--------------------------------------------
Warning: your license will expire in 11 days
--------------------------------------------

Academic license - for non-commercial use only
